15 40
25
2 11 7 21
3 2 4 10
7 10 0 0
4 8 11 0
5 9 4 12
2 7 9 2
1 4 4 29
1 6 14 8
5 4 0 36
3 8 4 21
3 1 11 8
5 5 9 9
1 3 0 33
4 12 0 21
2 6 13 14
4 2 7 0
4 11 0 10
2 10 7 2
2 3 5 29
2 11 13 20
4 3 1 33
4 26 9 14
4 8 5 32
2 3 13 31
2 6 13 34
% time elapsed: 19.68 s
% time elapsed: 19.68 s
%%%mzn-stat: initTime=0.000407
%%%mzn-stat: solveTime=19.5856
%%%mzn-stat: solutions=70
%%%mzn-stat: variables=51
%%%mzn-stat: propagators=30
%%%mzn-stat: propagations=8136804
%%%mzn-stat: nodes=2547918
%%%mzn-stat: failures=1271032
%%%mzn-stat: restarts=228
%%%mzn-stat: peakDepth=89
%%%mzn-stat-end
